ID_groupA
52281
19464
19464
19464
751
12876
12876
12876
12876
12876
19464
12876
12876
12876
19464
52281
19464
19464
19464
19464
52281
52281
19464
52281
52281
52281
52281
19464
19464
19464
19464
19464
19464
19464
19464
19464
19464
19464
19464
59847
751
751
19464
19464
19464
19464
59847
52281
19464
19464
751
751
19464
19464
19464
751
59847
52281
19464
19464
751
751
19464
751
751
19464
19464
19464
751
19464
19464
12876
751
19464
19464
19464
12876
19464
12876
12876
19464
19464
19464
12876
12876
12876
19464
52281
19464
12876
12876
19464
52281
12876
12876
19464
12876
12876
12876
52281
19464
19464
52281
52281
12876
